Version identifier: 20.1.0.0 | 2020-11-10 | 9bedb6d68
CPXPARAM_Threads                                 1
CPXPARAM_TimeLimit                               7200
CPXPARAM_MIP_Tolerances_MIPGap                   0
Generic callback                                 0x60
1 of 1 MIP starts provided solutions.
MIP start 'm1' defined initial solution with objective 3356.7914.
Tried aggregator 1 time.
Reduced MIP has 1001001 rows, 1001001 columns, and 3001000 nonzeros.
Reduced MIP has 1000 binaries, 0 generals, 0 SOSs, and 0 indicators.
Presolve time = 0.94 sec. (798.63 ticks)
Probing time = 0.13 sec. (125.04 ticks)
Tried aggregator 1 time.
Reduced MIP has 1001001 rows, 1001001 columns, and 3001000 nonzeros.
Reduced MIP has 1000 binaries, 0 generals, 0 SOSs, and 0 indicators.
Presolve time = 0.91 sec. (782.41 ticks)
Probing time = 0.13 sec. (125.04 ticks)
MIP emphasis: balance optimality and feasibility.
MIP search method: dynamic search.
Parallel mode: none, using 1 thread.
Root relaxation solution time = 0.33 sec. (385.50 ticks)

        Nodes                                         Cuts/
   Node  Left     Objective  IInf  Best Integer    Best Bound    ItCnt     Gap

*     0+    0                         3356.7914     5432.0000            61.82%
      0     0     3537.3306    10     3356.7914     5432.0000        0   61.82%
      0     0     3357.3894    13     3356.7914      Fract: 1       27    0.02%
      0     2     3357.3894    13     3356.7914     3357.3889       27    0.02%
Elapsed time = 160.12 sec. (113913.34 ticks, tree = 0.01 MB, solutions = 1)
      1     3     3357.3706    12     3356.7914     3357.3887      153    0.02%
      2     4     3357.2877    13     3356.7914     3357.3887      670    0.02%
      3     5     3357.3612    15     3356.7914     3357.3887      797    0.02%
      4     6     3357.3469    14     3356.7914     3357.3887      896    0.02%
      5     7     3357.3037    25     3356.7914     3357.3887     1423    0.02%
      6     8     3357.2419    13     3356.7914     3357.3887     2353    0.02%
      7     9     3357.2395     8     3356.7914     3357.3887     2542    0.02%
      8    10     3357.2241     8     3356.7914     3357.3887     4257    0.02%
      9    11     3357.1248     4     3356.7914     3357.3887     5516    0.02%
*    10    10      integral     0     3357.1227     3357.3887     5603    0.01%
     10     9     3357.1227     0     3357.1227     3357.3887     5603    0.01%
Elapsed time = 304.63 sec. (140415.26 ticks, tree = 10.51 MB, solutions = 2)
     11    10     3357.3272    13     3357.1227     3357.3608     6204    0.01%
     12    11     3357.3105    13     3357.1227     3357.3608     6515    0.01%
*    14    10      integral     0     3357.2080     3357.3608     6644    0.00%
     15    11     3357.2709    13     3357.2080     3357.3097     7229    0.00%
     17    11        cutoff           3357.2080     3357.3097     7520    0.00%
*    18    10      integral     0     3357.2181     3357.3097     7541    0.00%
     18    10     3357.2181     0     3357.2181     3357.3097     7541    0.00%
*    19     5      integral     0     3357.2745     3357.3097     7562    0.00%
     19     5     3357.2745     0     3357.2745     3357.3095     7562    0.00%
     20     4        cutoff           3357.2745     3357.3035     7641    0.00%
     23     3        cutoff           3357.2745     3357.3033     7657    0.00%
     25     1        cutoff           3357.2745     3357.2877     7682    0.00%
Elapsed time = 408.92 sec. (155943.99 ticks, tree = 0.01 MB, solutions = 5)
     28     0        cutoff           3357.2745     3357.2745     7733    0.00%

Gomory fractional cuts applied:  1
User cuts applied:  2

Root node processing (before b&c):
  Real time             =  160.08 sec. (113862.07 ticks)
Sequential b&c:
  Real time             =  263.80 sec. (43448.67 ticks)
                          ------------
Total (root+branch&cut) =  423.88 sec. (157310.74 ticks)
@Parameters: 
is_S_cut                                true
is_add_all_yinF                         true
is_start_value                          true
is_usercut                              true
is_visualization                        false
uc_only_rootnode                        false

data                                    Qi
fn                                      data/Qi/instance_1000_1000.csv
mode                                    ZLP
solver                                  cplex

p                                       50
r                                       10

EPS                                     1.0e-06
EPS_vio                                 1.0e-04
beta                                    0.10
gap                                     0.00
nodelimit                               Inf
timelimit                               7200.00


@PrintInfos
ItCnt: 7733
Current gap: 0.00 %
Termination Status: OPTIMAL
Primal Status: FEASIBLE_POINT
Solve Time: 423.88 sec
Objective Value: 3357.274455
Number of Nodes:     29

CutInfo: [phase] num / time (sec) 
ZLP             [phase1]     0 / 0.00 [rLC]     3 / 27.44 [rUC]     0 / 20.53 [sLC]     1 / 28.16 [sUC]     0 / 181.49 
OldSubmodular   [phase1]     0 / 0.00 [rLC]     0 / 0.00 [rUC]     0 / 0.00 [sLC]     0 / 0.00 [sUC]     0 / 0.00 
NewSubmodular   [phase1]     0 / 0.00 [rLC]     0 / 0.00 [rUC]     0 / 0.00 [sLC]     0 / 0.00 [sUC]     0 / 0.00 
PMP             [phase1]     0 / 0.00 [rLC]     4 / 21.95 [rUC]     4 / 17.26 [sLC]     5 / 24.39 [sUC]    30 / 154.59 
Separation Round: [phase1] 0  [rLC] 4  [rUC] 4  [sLC] 5  [sUC] 30
Root Best Bound 3357.388698
Root Best Integer: 3356.791361
Best Bound: 3357.274455
Best Integer: 3357.274455

